p cnf 612 1980
1 0
2 0
3 0
4 0
5 0
6 0
7 0
8 0
9 0
10 0
-11 0
-12 0
-13 0
-14 0
-15 0
-16 0
-17 0
-18 0
-19 0
-20 0
21 -1 -22 0
1 -21 -22 0
-21 -1 22 0
1 21 22 0
-23 -22 0
1 -21 -24 0
21 -1 -24 0
24 -1 -21 0
24 1 21 0
-25 24 0
-26 24 0
-27 24 0
28 -2 -29 0
2 -28 -29 0
-28 -2 29 0
2 28 29 0
-23 -29 0
2 -28 -30 0
28 -2 -30 0
30 -2 -28 0
30 2 28 0
-25 30 0
-26 30 0
-27 30 0
31 -3 -32 0
3 -31 -32 0
-31 -3 32 0
3 31 32 0
-23 -32 0
3 -31 -33 0
31 -3 -33 0
33 -3 -31 0
33 3 31 0
-25 33 0
-26 33 0
-27 33 0
34 -4 -35 0
4 -34 -35 0
-34 -4 35 0
4 34 35 0
-23 -35 0
4 -34 -36 0
34 -4 -36 0
36 -4 -34 0
36 4 34 0
-25 36 0
-26 36 0
-27 36 0
37 -5 -38 0
5 -37 -38 0
-37 -5 38 0
5 37 38 0
-23 -38 0
5 -37 -39 0
37 -5 -39 0
39 -5 -37 0
39 5 37 0
-25 39 0
-26 39 0
-27 39 0
40 -6 -41 0
6 -40 -41 0
-40 -6 41 0
6 40 41 0
-23 -41 0
6 -40 -42 0
40 -6 -42 0
42 -6 -40 0
42 6 40 0
-25 42 0
-26 42 0
-27 42 0
43 -7 -44 0
7 -43 -44 0
-43 -7 44 0
7 43 44 0
-23 -44 0
7 -43 -45 0
43 -7 -45 0
45 -7 -43 0
45 7 43 0
-25 45 0
-26 45 0
-27 45 0
46 -8 -47 0
8 -46 -47 0
-46 -8 47 0
8 46 47 0
-23 -47 0
8 -46 -48 0
46 -8 -48 0
48 -8 -46 0
48 8 46 0
-25 48 0
-26 48 0
-27 48 0
49 -9 -50 0
9 -49 -50 0
-49 -9 50 0
9 49 50 0
-23 -50 0
9 -49 -51 0
49 -9 -51 0
51 -9 -49 0
51 9 49 0
-25 51 0
-26 51 0
-27 51 0
52 -10 -53 0
10 -52 -53 0
-52 -10 53 0
10 52 53 0
-23 -53 0
10 -52 -54 0
52 -10 -54 0
54 -10 -52 0
54 10 52 0
-25 54 0
-26 54 0
-27 54 0
55 -11 -56 0
11 -55 -56 0
-55 -11 56 0
11 55 56 0
-23 -56 0
11 -57 -58 0
57 -11 -58 0
58 -11 -57 0
58 11 57 0
-25 58 0
-55 59 0
-57 59 0
-60 59 0
55 57 60 -59 0
11 -59 -61 0
-11 59 -61 0
-11 -59 61 0
11 59 61 0
-26 61 0
55 62 0
57 62 0
60 62 0
-55 -57 -60 -62 0
-11 62 -63 0
11 -62 -63 0
63 -62 -11 0
11 62 63 0
-27 -63 0
57 -64 -65 0
64 -57 -65 0
-57 -64 65 0
57 64 65 0
-23 -65 0
64 -60 -66 0
60 -64 -66 0
66 -64 -60 0
66 64 60 0
-25 66 0
-57 67 0
-60 67 0
57 60 -67 0
64 -67 -68 0
-64 67 -68 0
-64 -67 68 0
64 67 68 0
-26 68 0
57 69 0
60 69 0
-57 -60 -69 0
-64 69 -70 0
64 -69 -70 0
70 -69 -64 0
64 69 70 0
-27 -70 0
60 -71 -72 0
71 -60 -72 0
-60 -71 72 0
60 71 72 0
-23 -72 0
-57 71 -73 0
57 -71 -73 0
73 -71 -57 0
73 71 57 0
-25 73 0
71 -67 -74 0
-71 67 -74 0
-71 -67 74 0
71 67 74 0
-26 74 0
-71 69 -75 0
71 -69 -75 0
75 -69 -71 0
71 69 75 0
-27 -75 0
76 -12 -77 0
12 -76 -77 0
-76 -12 77 0
12 76 77 0
-23 -77 0
12 -78 -79 0
78 -12 -79 0
79 -12 -78 0
79 12 78 0
-25 79 0
-76 80 0
-78 80 0
-81 80 0
-82 80 0
-83 80 0
84 0
12 -80 -85 0
-12 80 -85 0
-12 -80 85 0
12 80 85 0
-26 85 0
76 86 0
78 86 0
81 86 0
82 86 0
83 86 0
-87 0
-12 86 -88 0
12 -86 -88 0
88 -86 -12 0
12 86 88 0
-27 -88 0
78 -89 -90 0
89 -78 -90 0
-78 -89 90 0
78 89 90 0
-23 -90 0
89 -81 -91 0
81 -89 -91 0
91 -89 -81 0
91 89 81 0
-25 91 0
-78 92 0
-81 92 0
-82 92 0
-83 92 0
78 81 82 83 -92 0
89 -92 -93 0
-89 92 -93 0
-89 -92 93 0
89 92 93 0
-26 93 0
78 94 0
81 94 0
82 94 0
83 94 0
-95 0
-89 94 -96 0
89 -94 -96 0
96 -94 -89 0
89 94 96 0
-27 -96 0
81 -97 -98 0
97 -81 -98 0
-81 -97 98 0
81 97 98 0
-23 -98 0
97 -82 -99 0
82 -97 -99 0
99 -97 -82 0
99 97 82 0
-25 99 0
-81 100 0
-82 100 0
-83 100 0
81 82 83 -100 0
97 -100 -101 0
-97 100 -101 0
-97 -100 101 0
97 100 101 0
-26 101 0
81 102 0
82 102 0
83 102 0
-81 -82 -83 -102 0
-97 102 -103 0
97 -102 -103 0
103 -102 -97 0
97 102 103 0
-27 -103 0
82 -104 -105 0
104 -82 -105 0
-82 -104 105 0
82 104 105 0
-23 -105 0
104 -83 -106 0
83 -104 -106 0
106 -104 -83 0
106 104 83 0
-25 106 0
-82 107 0
-83 107 0
82 83 -107 0
104 -107 -108 0
-104 107 -108 0
-104 -107 108 0
104 107 108 0
-26 108 0
82 109 0
83 109 0
-82 -83 -109 0
-104 109 -110 0
104 -109 -110 0
110 -109 -104 0
104 109 110 0
-27 -110 0
83 -111 -112 0
111 -83 -112 0
-83 -111 112 0
83 111 112 0
-23 -112 0
-82 111 -113 0
82 -111 -113 0
113 -111 -82 0
113 111 82 0
-25 113 0
111 -107 -114 0
-111 107 -114 0
-111 -107 114 0
111 107 114 0
-26 114 0
-111 109 -115 0
111 -109 -115 0
115 -109 -111 0
111 109 115 0
-27 -115 0
116 -13 -117 0
13 -116 -117 0
-116 -13 117 0
13 116 117 0
-23 -117 0
13 -118 -119 0
118 -13 -119 0
119 -13 -118 0
119 13 118 0
-25 119 0
-116 120 0
-118 120 0
-121 120 0
-122 120 0
-123 120 0
-124 120 0
125 0
13 -120 -126 0
-13 120 -126 0
-13 -120 126 0
13 120 126 0
-26 126 0
116 127 0
118 127 0
121 127 0
122 127 0
123 127 0
124 127 0
-128 0
-13 127 -129 0
13 -127 -129 0
129 -127 -13 0
13 127 129 0
-27 -129 0
118 -130 -131 0
130 -118 -131 0
-118 -130 131 0
118 130 131 0
-23 -131 0
130 -121 -132 0
121 -130 -132 0
132 -130 -121 0
132 130 121 0
-25 132 0
-118 133 0
-121 133 0
-122 133 0
-123 133 0
-124 133 0
134 0
130 -133 -135 0
-130 133 -135 0
-130 -133 135 0
130 133 135 0
-26 135 0
118 136 0
121 136 0
122 136 0
123 136 0
124 136 0
-137 0
-130 136 -138 0
130 -136 -138 0
138 -136 -130 0
130 136 138 0
-27 -138 0
121 -139 -140 0
139 -121 -140 0
-121 -139 140 0
121 139 140 0
-23 -140 0
139 -122 -141 0
122 -139 -141 0
141 -139 -122 0
141 139 122 0
-25 141 0
-121 142 0
-122 142 0
-123 142 0
-124 142 0
121 122 123 124 -142 0
139 -142 -143 0
-139 142 -143 0
-139 -142 143 0
139 142 143 0
-26 143 0
121 144 0
122 144 0
123 144 0
124 144 0
-145 0
-139 144 -146 0
139 -144 -146 0
146 -144 -139 0
139 144 146 0
-27 -146 0
122 -147 -148 0
147 -122 -148 0
-122 -147 148 0
122 147 148 0
-23 -148 0
147 -123 -149 0
123 -147 -149 0
149 -147 -123 0
149 147 123 0
-25 149 0
147 -142 -150 0
-147 142 -150 0
-147 -142 150 0
147 142 150 0
-26 150 0
-147 144 -151 0
147 -144 -151 0
151 -144 -147 0
147 144 151 0
-27 -151 0
123 -152 -153 0
152 -123 -153 0
-123 -152 153 0
123 152 153 0
-23 -153 0
152 -124 -154 0
124 -152 -154 0
154 -152 -124 0
154 152 124 0
-25 154 0
152 -142 -155 0
-152 142 -155 0
-152 -142 155 0
152 142 155 0
-26 155 0
-152 144 -156 0
152 -144 -156 0
156 -144 -152 0
152 144 156 0
-27 -156 0
124 -157 -158 0
157 -124 -158 0
-124 -157 158 0
124 157 158 0
-23 -158 0
-121 157 -159 0
121 -157 -159 0
159 -157 -121 0
159 157 121 0
-25 159 0
157 -142 -160 0
-157 142 -160 0
-157 -142 160 0
157 142 160 0
-26 160 0
-157 144 -161 0
157 -144 -161 0
161 -144 -157 0
157 144 161 0
-27 -161 0
162 -14 -163 0
14 -162 -163 0
-162 -14 163 0
14 162 163 0
-23 -163 0
14 -164 -165 0
164 -14 -165 0
165 -14 -164 0
165 14 164 0
-25 165 0
-162 166 0
-164 166 0
-167 166 0
-168 166 0
-169 166 0
-170 166 0
171 0
14 -166 -172 0
-14 166 -172 0
-14 -166 172 0
14 166 172 0
-26 172 0
162 173 0
164 173 0
167 173 0
168 173 0
169 173 0
170 173 0
-174 0
-14 173 -175 0
14 -173 -175 0
175 -173 -14 0
14 173 175 0
-27 -175 0
164 -176 -177 0
176 -164 -177 0
-164 -176 177 0
164 176 177 0
-23 -177 0
176 -167 -178 0
167 -176 -178 0
178 -176 -167 0
178 176 167 0
-25 178 0
-164 179 0
-167 179 0
-168 179 0
-169 179 0
-170 179 0
180 0
176 -179 -181 0
-176 179 -181 0
-176 -179 181 0
176 179 181 0
-26 181 0
164 182 0
167 182 0
168 182 0
169 182 0
170 182 0
-183 0
-176 182 -184 0
176 -182 -184 0
184 -182 -176 0
176 182 184 0
-27 -184 0
167 -185 -186 0
185 -167 -186 0
-167 -185 186 0
167 185 186 0
-23 -186 0
185 -168 -187 0
168 -185 -187 0
187 -185 -168 0
187 185 168 0
-25 187 0
-167 188 0
-168 188 0
-169 188 0
-170 188 0
167 168 169 170 -188 0
185 -188 -189 0
-185 188 -189 0
-185 -188 189 0
185 188 189 0
-26 189 0
167 190 0
168 190 0
169 190 0
170 190 0
-191 0
-185 190 -192 0
185 -190 -192 0
192 -190 -185 0
185 190 192 0
-27 -192 0
168 -193 -194 0
193 -168 -194 0
-168 -193 194 0
168 193 194 0
-23 -194 0
193 -169 -195 0
169 -193 -195 0
195 -193 -169 0
195 193 169 0
-25 195 0
193 -188 -196 0
-193 188 -196 0
-193 -188 196 0
193 188 196 0
-26 196 0
-193 190 -197 0
193 -190 -197 0
197 -190 -193 0
193 190 197 0
-27 -197 0
169 -198 -199 0
198 -169 -199 0
-169 -198 199 0
169 198 199 0
-23 -199 0
198 -170 -200 0
170 -198 -200 0
200 -198 -170 0
200 198 170 0
-25 200 0
198 -188 -201 0
-198 188 -201 0
-198 -188 201 0
198 188 201 0
-26 201 0
-198 190 -202 0
198 -190 -202 0
202 -190 -198 0
198 190 202 0
-27 -202 0
170 -203 -204 0
203 -170 -204 0
-170 -203 204 0
170 203 204 0
-23 -204 0
-167 203 -205 0
167 -203 -205 0
205 -203 -167 0
205 203 167 0
-25 205 0
203 -188 -206 0
-203 188 -206 0
-203 -188 206 0
203 188 206 0
-26 206 0
-203 190 -207 0
203 -190 -207 0
207 -190 -203 0
203 190 207 0
-27 -207 0
208 -15 -209 0
15 -208 -209 0
-208 -15 209 0
15 208 209 0
-23 -209 0
15 -210 -211 0
210 -15 -211 0
211 -15 -210 0
211 15 210 0
-25 211 0
-208 212 0
-210 212 0
-213 212 0
-214 212 0
208 210 213 214 -212 0
15 -212 -215 0
-15 212 -215 0
-15 -212 215 0
15 212 215 0
-26 215 0
208 216 0
210 216 0
213 216 0
214 216 0
-217 0
-15 216 -218 0
15 -216 -218 0
218 -216 -15 0
15 216 218 0
-27 -218 0
210 -219 -220 0
219 -210 -220 0
-210 -219 220 0
210 219 220 0
-23 -220 0
219 -213 -221 0
213 -219 -221 0
221 -219 -213 0
221 219 213 0
-25 221 0
-210 222 0
-213 222 0
-214 222 0
210 213 214 -222 0
219 -222 -223 0
-219 222 -223 0
-219 -222 223 0
219 222 223 0
-26 223 0
210 224 0
213 224 0
214 224 0
-210 -213 -214 -224 0
-219 224 -225 0
219 -224 -225 0
225 -224 -219 0
219 224 225 0
-27 -225 0
213 -226 -227 0
226 -213 -227 0
-213 -226 227 0
213 226 227 0
-23 -227 0
226 -214 -228 0
214 -226 -228 0
228 -226 -214 0
228 226 214 0
-25 228 0
-213 229 0
-214 229 0
213 214 -229 0
226 -229 -230 0
-226 229 -230 0
-226 -229 230 0
226 229 230 0
-26 230 0
213 231 0
214 231 0
-213 -214 -231 0
-226 231 -232 0
226 -231 -232 0
232 -231 -226 0
226 231 232 0
-27 -232 0
214 -233 -234 0
233 -214 -234 0
-214 -233 234 0
214 233 234 0
-23 -234 0
233 -214 -235 0
214 -233 -235 0
235 -233 -214 0
235 233 214 0
-25 235 0
-26 235 0
-27 235 0
236 -16 -237 0
16 -236 -237 0
-236 -16 237 0
16 236 237 0
-23 -237 0
16 -238 -239 0
238 -16 -239 0
239 -16 -238 0
239 16 238 0
-25 239 0
-236 240 0
-238 240 0
-241 240 0
-242 240 0
-243 240 0
-244 240 0
245 0
16 -240 -246 0
-16 240 -246 0
-16 -240 246 0
16 240 246 0
-26 246 0
236 247 0
238 247 0
241 247 0
242 247 0
243 247 0
244 247 0
-248 0
-16 247 -249 0
16 -247 -249 0
249 -247 -16 0
16 247 249 0
-27 -249 0
238 -250 -251 0
250 -238 -251 0
-238 -250 251 0
238 250 251 0
-23 -251 0
250 -241 -252 0
241 -250 -252 0
252 -250 -241 0
252 250 241 0
-25 252 0
-238 253 0
-241 253 0
-242 253 0
-243 253 0
-244 253 0
254 0
250 -253 -255 0
-250 253 -255 0
-250 -253 255 0
250 253 255 0
-26 255 0
238 256 0
241 256 0
242 256 0
243 256 0
244 256 0
-257 0
-250 256 -258 0
250 -256 -258 0
258 -256 -250 0
250 256 258 0
-27 -258 0
241 -259 -260 0
259 -241 -260 0
-241 -259 260 0
241 259 260 0
-23 -260 0
259 -242 -261 0
242 -259 -261 0
261 -259 -242 0
261 259 242 0
-25 261 0
-241 262 0
-242 262 0
-243 262 0
-244 262 0
241 242 243 244 -262 0
259 -262 -263 0
-259 262 -263 0
-259 -262 263 0
259 262 263 0
-26 263 0
241 264 0
242 264 0
243 264 0
244 264 0
-265 0
-259 264 -266 0
259 -264 -266 0
266 -264 -259 0
259 264 266 0
-27 -266 0
242 -267 -268 0
267 -242 -268 0
-242 -267 268 0
242 267 268 0
-23 -268 0
267 -243 -269 0
243 -267 -269 0
269 -267 -243 0
269 267 243 0
-25 269 0
-242 270 0
-243 270 0
-244 270 0
242 243 244 -270 0
267 -270 -271 0
-267 270 -271 0
-267 -270 271 0
267 270 271 0
-26 271 0
242 272 0
243 272 0
244 272 0
-242 -243 -244 -272 0
-267 272 -273 0
267 -272 -273 0
273 -272 -267 0
267 272 273 0
-27 -273 0
243 -274 -275 0
274 -243 -275 0
-243 -274 275 0
243 274 275 0
-23 -275 0
274 -244 -276 0
244 -274 -276 0
276 -274 -244 0
276 274 244 0
-25 276 0
274 -270 -277 0
-274 270 -277 0
-274 -270 277 0
274 270 277 0
-26 277 0
-274 272 -278 0
274 -272 -278 0
278 -272 -274 0
274 272 278 0
-27 -278 0
244 -279 -280 0
279 -244 -280 0
-244 -279 280 0
244 279 280 0
-23 -280 0
-242 279 -281 0
242 -279 -281 0
281 -279 -242 0
281 279 242 0
-25 281 0
279 -270 -282 0
-279 270 -282 0
-279 -270 282 0
279 270 282 0
-26 282 0
-279 272 -283 0
279 -272 -283 0
283 -272 -279 0
279 272 283 0
-27 -283 0
284 -17 -285 0
17 -284 -285 0
-284 -17 285 0
17 284 285 0
-23 -285 0
17 -286 -287 0
286 -17 -287 0
287 -17 -286 0
287 17 286 0
-25 287 0
-284 288 0
-286 288 0
-289 288 0
-290 288 0
-291 288 0
292 0
17 -288 -293 0
-17 288 -293 0
-17 -288 293 0
17 288 293 0
-26 293 0
284 294 0
286 294 0
289 294 0
290 294 0
291 294 0
-295 0
-17 294 -296 0
17 -294 -296 0
296 -294 -17 0
17 294 296 0
-27 -296 0
286 -297 -298 0
297 -286 -298 0
-286 -297 298 0
286 297 298 0
-23 -298 0
297 -289 -299 0
289 -297 -299 0
299 -297 -289 0
299 297 289 0
-25 299 0
-286 300 0
-289 300 0
-290 300 0
-291 300 0
286 289 290 291 -300 0
297 -300 -301 0
-297 300 -301 0
-297 -300 301 0
297 300 301 0
-26 301 0
286 302 0
289 302 0
290 302 0
291 302 0
-303 0
-297 302 -304 0
297 -302 -304 0
304 -302 -297 0
297 302 304 0
-27 -304 0
289 -305 -306 0
305 -289 -306 0
-289 -305 306 0
289 305 306 0
-23 -306 0
305 -290 -307 0
290 -305 -307 0
307 -305 -290 0
307 305 290 0
-25 307 0
-289 308 0
-290 308 0
-291 308 0
289 290 291 -308 0
305 -308 -309 0
-305 308 -309 0
-305 -308 309 0
305 308 309 0
-26 309 0
289 310 0
290 310 0
291 310 0
-289 -290 -291 -310 0
-305 310 -311 0
305 -310 -311 0
311 -310 -305 0
305 310 311 0
-27 -311 0
290 -312 -313 0
312 -290 -313 0
-290 -312 313 0
290 312 313 0
-23 -313 0
312 -291 -314 0
291 -312 -314 0
314 -312 -291 0
314 312 291 0
-25 314 0
-290 315 0
-291 315 0
290 291 -315 0
312 -315 -316 0
-312 315 -316 0
-312 -315 316 0
312 315 316 0
-26 316 0
290 317 0
291 317 0
-290 -291 -317 0
-312 317 -318 0
312 -317 -318 0
318 -317 -312 0
312 317 318 0
-27 -318 0
291 -319 -320 0
319 -291 -320 0
-291 -319 320 0
291 319 320 0
-23 -320 0
319 -291 -321 0
291 -319 -321 0
321 -319 -291 0
321 319 291 0
-25 321 0
-26 321 0
-27 321 0
322 -18 -323 0
18 -322 -323 0
-322 -18 323 0
18 322 323 0
-23 -323 0
18 -324 -325 0
324 -18 -325 0
325 -18 -324 0
325 18 324 0
-25 325 0
-322 326 0
-324 326 0
-327 326 0
-328 326 0
-329 326 0
-330 326 0
331 0
18 -326 -332 0
-18 326 -332 0
-18 -326 332 0
18 326 332 0
-26 332 0
322 333 0
324 333 0
327 333 0
328 333 0
329 333 0
330 333 0
-334 0
-18 333 -335 0
18 -333 -335 0
335 -333 -18 0
18 333 335 0
-27 -335 0
324 -336 -337 0
336 -324 -337 0
-324 -336 337 0
324 336 337 0
-23 -337 0
336 -327 -338 0
327 -336 -338 0
338 -336 -327 0
338 336 327 0
-25 338 0
-324 339 0
-327 339 0
-328 339 0
-329 339 0
-330 339 0
340 0
336 -339 -341 0
-336 339 -341 0
-336 -339 341 0
336 339 341 0
-26 341 0
324 342 0
327 342 0
328 342 0
329 342 0
330 342 0
-343 0
-336 342 -344 0
336 -342 -344 0
344 -342 -336 0
336 342 344 0
-27 -344 0
327 -345 -346 0
345 -327 -346 0
-327 -345 346 0
327 345 346 0
-23 -346 0
345 -328 -347 0
328 -345 -347 0
347 -345 -328 0
347 345 328 0
-25 347 0
-327 348 0
-328 348 0
-329 348 0
-330 348 0
327 328 329 330 -348 0
345 -348 -349 0
-345 348 -349 0
-345 -348 349 0
345 348 349 0
-26 349 0
327 350 0
328 350 0
329 350 0
330 350 0
-351 0
-345 350 -352 0
345 -350 -352 0
352 -350 -345 0
345 350 352 0
-27 -352 0
328 -353 -354 0
353 -328 -354 0
-328 -353 354 0
328 353 354 0
-23 -354 0
353 -329 -355 0
329 -353 -355 0
355 -353 -329 0
355 353 329 0
-25 355 0
-328 356 0
-329 356 0
-330 356 0
328 329 330 -356 0
353 -356 -357 0
-353 356 -357 0
-353 -356 357 0
353 356 357 0
-26 357 0
328 358 0
329 358 0
330 358 0
-328 -329 -330 -358 0
-353 358 -359 0
353 -358 -359 0
359 -358 -353 0
353 358 359 0
-27 -359 0
329 -360 -361 0
360 -329 -361 0
-329 -360 361 0
329 360 361 0
-23 -361 0
360 -330 -362 0
330 -360 -362 0
362 -360 -330 0
362 360 330 0
-25 362 0
360 -356 -363 0
-360 356 -363 0
-360 -356 363 0
360 356 363 0
-26 363 0
-360 358 -364 0
360 -358 -364 0
364 -358 -360 0
360 358 364 0
-27 -364 0
330 -365 -366 0
365 -330 -366 0
-330 -365 366 0
330 365 366 0
-23 -366 0
-328 365 -367 0
328 -365 -367 0
367 -365 -328 0
367 365 328 0
-25 367 0
365 -356 -368 0
-365 356 -368 0
-365 -356 368 0
365 356 368 0
-26 368 0
-365 358 -369 0
365 -358 -369 0
369 -358 -365 0
365 358 369 0
-27 -369 0
370 -19 -371 0
19 -370 -371 0
-370 -19 371 0
19 370 371 0
-23 -371 0
19 -372 -373 0
372 -19 -373 0
373 -19 -372 0
373 19 372 0
-25 373 0
-370 374 0
-372 374 0
-375 374 0
-376 374 0
-377 374 0
-378 374 0
-379 374 0
-380 374 0
381 0
19 -374 -382 0
-19 374 -382 0
-19 -374 382 0
19 374 382 0
-26 382 0
370 383 0
372 383 0
375 383 0
376 383 0
377 383 0
378 383 0
379 383 0
380 383 0
-384 0
-19 383 -385 0
19 -383 -385 0
385 -383 -19 0
19 383 385 0
-27 -385 0
372 -386 -387 0
386 -372 -387 0
-372 -386 387 0
372 386 387 0
-23 -387 0
386 -375 -388 0
375 -386 -388 0
388 -386 -375 0
388 386 375 0
-25 388 0
-372 389 0
-375 389 0
-376 389 0
-377 389 0
-378 389 0
-379 389 0
-380 389 0
390 0
386 -389 -391 0
-386 389 -391 0
-386 -389 391 0
386 389 391 0
-26 391 0
372 392 0
375 392 0
376 392 0
377 392 0
378 392 0
379 392 0
380 392 0
-393 0
-386 392 -394 0
386 -392 -394 0
394 -392 -386 0
386 392 394 0
-27 -394 0
375 -395 -396 0
395 -375 -396 0
-375 -395 396 0
375 395 396 0
-23 -396 0
395 -376 -397 0
376 -395 -397 0
397 -395 -376 0
397 395 376 0
-25 397 0
-375 398 0
-376 398 0
-377 398 0
-378 398 0
-379 398 0
-380 398 0
399 0
395 -398 -400 0
-395 398 -400 0
-395 -398 400 0
395 398 400 0
-26 400 0
375 401 0
376 401 0
377 401 0
378 401 0
379 401 0
380 401 0
-402 0
-395 401 -403 0
395 -401 -403 0
403 -401 -395 0
395 401 403 0
-27 -403 0
376 -404 -405 0
404 -376 -405 0
-376 -404 405 0
376 404 405 0
-23 -405 0
404 -377 -406 0
377 -404 -406 0
406 -404 -377 0
406 404 377 0
-25 406 0
-376 407 0
-377 407 0
-378 407 0
-379 407 0
-380 407 0
408 0
404 -407 -409 0
-404 407 -409 0
-404 -407 409 0
404 407 409 0
-26 409 0
376 410 0
377 410 0
378 410 0
379 410 0
380 410 0
-411 0
-404 410 -412 0
404 -410 -412 0
412 -410 -404 0
404 410 412 0
-27 -412 0
377 -413 -414 0
413 -377 -414 0
-377 -413 414 0
377 413 414 0
-23 -414 0
413 -378 -415 0
378 -413 -415 0
415 -413 -378 0
415 413 378 0
-25 415 0
-377 416 0
-378 416 0
-379 416 0
-380 416 0
377 378 379 380 -416 0
413 -416 -417 0
-413 416 -417 0
-413 -416 417 0
413 416 417 0
-26 417 0
377 418 0
378 418 0
379 418 0
380 418 0
-419 0
-413 418 -420 0
413 -418 -420 0
420 -418 -413 0
413 418 420 0
-27 -420 0
378 -421 -422 0
421 -378 -422 0
-378 -421 422 0
378 421 422 0
-23 -422 0
421 -379 -423 0
379 -421 -423 0
423 -421 -379 0
423 421 379 0
-25 423 0
421 -416 -424 0
-421 416 -424 0
-421 -416 424 0
421 416 424 0
-26 424 0
-421 418 -425 0
421 -418 -425 0
425 -418 -421 0
421 418 425 0
-27 -425 0
379 -426 -427 0
426 -379 -427 0
-379 -426 427 0
379 426 427 0
-23 -427 0
426 -380 -428 0
380 -426 -428 0
428 -426 -380 0
428 426 380 0
-25 428 0
426 -416 -429 0
-426 416 -429 0
-426 -416 429 0
426 416 429 0
-26 429 0
-426 418 -430 0
426 -418 -430 0
430 -418 -426 0
426 418 430 0
-27 -430 0
380 -431 -432 0
431 -380 -432 0
-380 -431 432 0
380 431 432 0
-23 -432 0
-377 431 -433 0
377 -431 -433 0
433 -431 -377 0
433 431 377 0
-25 433 0
431 -416 -434 0
-431 416 -434 0
-431 -416 434 0
431 416 434 0
-26 434 0
-431 418 -435 0
431 -418 -435 0
435 -418 -431 0
431 418 435 0
-27 -435 0
436 -20 -437 0
20 -436 -437 0
-436 -20 437 0
20 436 437 0
-23 -437 0
20 -438 -439 0
438 -20 -439 0
439 -20 -438 0
439 20 438 0
-25 439 0
-436 440 0
-438 440 0
-441 440 0
-442 440 0
-443 440 0
444 0
20 -440 -445 0
-20 440 -445 0
-20 -440 445 0
20 440 445 0
-26 445 0
436 446 0
438 446 0
441 446 0
442 446 0
443 446 0
-447 0
-20 446 -448 0
20 -446 -448 0
448 -446 -20 0
20 446 448 0
-27 -448 0
438 -449 -450 0
449 -438 -450 0
-438 -449 450 0
438 449 450 0
-23 -450 0
449 -441 -451 0
441 -449 -451 0
451 -449 -441 0
451 449 441 0
-25 451 0
-438 452 0
-441 452 0
-442 452 0
-443 452 0
438 441 442 443 -452 0
449 -452 -453 0
-449 452 -453 0
-449 -452 453 0
449 452 453 0
-26 453 0
438 454 0
441 454 0
442 454 0
443 454 0
-455 0
-449 454 -456 0
449 -454 -456 0
456 -454 -449 0
449 454 456 0
-27 -456 0
441 -457 -458 0
457 -441 -458 0
-441 -457 458 0
441 457 458 0
-23 -458 0
457 -442 -459 0
442 -457 -459 0
459 -457 -442 0
459 457 442 0
-25 459 0
-441 460 0
-442 460 0
-443 460 0
441 442 443 -460 0
457 -460 -461 0
-457 460 -461 0
-457 -460 461 0
457 460 461 0
-26 461 0
441 462 0
442 462 0
443 462 0
-441 -442 -443 -462 0
-457 462 -463 0
457 -462 -463 0
463 -462 -457 0
457 462 463 0
-27 -463 0
442 -464 -465 0
464 -442 -465 0
-442 -464 465 0
442 464 465 0
-23 -465 0
464 -443 -466 0
443 -464 -466 0
466 -464 -443 0
466 464 443 0
-25 466 0
-442 467 0
-443 467 0
442 443 -467 0
464 -467 -468 0
-464 467 -468 0
-464 -467 468 0
464 467 468 0
-26 468 0
442 469 0
443 469 0
-442 -443 -469 0
-464 469 -470 0
464 -469 -470 0
470 -469 -464 0
464 469 470 0
-27 -470 0
443 -471 -472 0
471 -443 -472 0
-443 -471 472 0
443 471 472 0
-23 -472 0
-442 471 -473 0
442 -471 -473 0
473 -471 -442 0
473 471 442 0
-25 473 0
471 -467 -474 0
-471 467 -474 0
-471 -467 474 0
471 467 474 0
-26 474 0
-471 469 -475 0
471 -469 -475 0
475 -469 -471 0
471 469 475 0
-27 -475 0
23 25 26 27 0
-23 -25 0
-23 -26 0
-23 -27 0
-25 -26 0
-25 -27 0
-26 -27 0
-21 476 -477 0
21 -476 -477 0
-21 -476 477 0
21 476 477 0
-477 0
-28 478 -479 0
28 -478 -479 0
-28 -478 479 0
28 478 479 0
-479 0
-31 480 -481 0
31 -480 -481 0
-31 -480 481 0
31 480 481 0
-481 0
-34 482 -483 0
34 -482 -483 0
-34 -482 483 0
34 482 483 0
-483 0
-37 484 -485 0
37 -484 -485 0
-37 -484 485 0
37 484 485 0
-485 0
-40 486 -487 0
40 -486 -487 0
-40 -486 487 0
40 486 487 0
-487 0
-43 488 -489 0
43 -488 -489 0
-43 -488 489 0
43 488 489 0
-489 0
-46 490 -491 0
46 -490 -491 0
-46 -490 491 0
46 490 491 0
-491 0
-49 492 -493 0
49 -492 -493 0
-49 -492 493 0
49 492 493 0
-493 0
-52 494 -495 0
52 -494 -495 0
-52 -494 495 0
52 494 495 0
-495 0
-55 496 -497 0
55 -496 -497 0
-55 -496 497 0
55 496 497 0
-497 0
-57 498 -499 0
57 -498 -499 0
-57 -498 499 0
57 498 499 0
-499 0
-60 500 -501 0
60 -500 -501 0
-60 -500 501 0
60 500 501 0
-501 0
-76 502 -503 0
76 -502 -503 0
-76 -502 503 0
76 502 503 0
-503 0
-78 504 -505 0
78 -504 -505 0
-78 -504 505 0
78 504 505 0
-505 0
-81 506 -507 0
81 -506 -507 0
-81 -506 507 0
81 506 507 0
-507 0
-82 508 -509 0
82 -508 -509 0
-82 -508 509 0
82 508 509 0
-509 0
-83 510 -511 0
83 -510 -511 0
-83 -510 511 0
83 510 511 0
-511 0
-116 512 -513 0
116 -512 -513 0
-116 -512 513 0
116 512 513 0
-513 0
-118 514 -515 0
118 -514 -515 0
-118 -514 515 0
118 514 515 0
-515 0
-121 516 -517 0
121 -516 -517 0
-121 -516 517 0
121 516 517 0
-517 0
-122 518 -519 0
122 -518 -519 0
-122 -518 519 0
122 518 519 0
-519 0
-123 520 -521 0
123 -520 -521 0
-123 -520 521 0
123 520 521 0
-521 0
-124 522 -523 0
124 -522 -523 0
-124 -522 523 0
124 522 523 0
-523 0
-162 524 -525 0
162 -524 -525 0
-162 -524 525 0
162 524 525 0
-525 0
-164 526 -527 0
164 -526 -527 0
-164 -526 527 0
164 526 527 0
-527 0
-167 528 -529 0
167 -528 -529 0
-167 -528 529 0
167 528 529 0
-529 0
-168 530 -531 0
168 -530 -531 0
-168 -530 531 0
168 530 531 0
-531 0
-169 532 -533 0
169 -532 -533 0
-169 -532 533 0
169 532 533 0
-533 0
-170 534 -535 0
170 -534 -535 0
-170 -534 535 0
170 534 535 0
-535 0
-208 536 -537 0
208 -536 -537 0
-208 -536 537 0
208 536 537 0
-537 0
-210 538 -539 0
210 -538 -539 0
-210 -538 539 0
210 538 539 0
-539 0
-213 540 -541 0
213 -540 -541 0
-213 -540 541 0
213 540 541 0
-541 0
-214 542 -543 0
214 -542 -543 0
-214 -542 543 0
214 542 543 0
-543 0
-236 544 -545 0
236 -544 -545 0
-236 -544 545 0
236 544 545 0
-545 0
-238 546 -547 0
238 -546 -547 0
-238 -546 547 0
238 546 547 0
-547 0
-241 548 -549 0
241 -548 -549 0
-241 -548 549 0
241 548 549 0
-549 0
-242 550 -551 0
242 -550 -551 0
-242 -550 551 0
242 550 551 0
-551 0
-243 552 -553 0
243 -552 -553 0
-243 -552 553 0
243 552 553 0
-553 0
-244 554 -555 0
244 -554 -555 0
-244 -554 555 0
244 554 555 0
-555 0
-284 556 -557 0
284 -556 -557 0
-284 -556 557 0
284 556 557 0
-557 0
-286 558 -559 0
286 -558 -559 0
-286 -558 559 0
286 558 559 0
-559 0
-289 560 -561 0
289 -560 -561 0
-289 -560 561 0
289 560 561 0
-561 0
-290 562 -563 0
290 -562 -563 0
-290 -562 563 0
290 562 563 0
-563 0
-291 564 -565 0
291 -564 -565 0
-291 -564 565 0
291 564 565 0
-565 0
-322 566 -567 0
322 -566 -567 0
-322 -566 567 0
322 566 567 0
-567 0
-324 568 -569 0
324 -568 -569 0
-324 -568 569 0
324 568 569 0
-569 0
-327 570 -571 0
327 -570 -571 0
-327 -570 571 0
327 570 571 0
-571 0
-328 572 -573 0
328 -572 -573 0
-328 -572 573 0
328 572 573 0
-573 0
-329 574 -575 0
329 -574 -575 0
-329 -574 575 0
329 574 575 0
-575 0
-330 576 -577 0
330 -576 -577 0
-330 -576 577 0
330 576 577 0
-577 0
-370 578 -579 0
370 -578 -579 0
-370 -578 579 0
370 578 579 0
-579 0
-372 580 -581 0
372 -580 -581 0
-372 -580 581 0
372 580 581 0
-581 0
-375 582 -583 0
375 -582 -583 0
-375 -582 583 0
375 582 583 0
-583 0
-376 584 -585 0
376 -584 -585 0
-376 -584 585 0
376 584 585 0
-585 0
-377 586 -587 0
377 -586 -587 0
-377 -586 587 0
377 586 587 0
-587 0
-378 588 -589 0
378 -588 -589 0
-378 -588 589 0
378 588 589 0
-589 0
-379 590 -591 0
379 -590 -591 0
-379 -590 591 0
379 590 591 0
-591 0
-380 592 -593 0
380 -592 -593 0
-380 -592 593 0
380 592 593 0
-593 0
-436 594 -595 0
436 -594 -595 0
-436 -594 595 0
436 594 595 0
-595 0
-438 596 -597 0
438 -596 -597 0
-438 -596 597 0
438 596 597 0
-597 0
-441 598 -599 0
441 -598 -599 0
-441 -598 599 0
441 598 599 0
-599 0
-442 600 -601 0
442 -600 -601 0
-442 -600 601 0
442 600 601 0
-601 0
-443 602 -603 0
443 -602 -603 0
-443 -602 603 0
443 602 603 0
-603 0
-604 -476 0
-604 -478 0
-604 -480 0
-604 -482 0
-604 -484 0
-604 -486 0
-604 -488 0
-604 -490 0
-604 -492 0
-604 -494 0
496 -604 0
498 -604 0
-604 -500 0
-604 -502 0
504 -604 0
506 -604 0
508 -604 0
-604 -510 0
-604 -512 0
-604 -514 0
516 -604 0
-604 -518 0
-604 -520 0
522 -604 0
524 -604 0
-604 -526 0
-604 -528 0
-604 -530 0
-604 -532 0
534 -604 0
-604 -536 0
-604 -538 0
540 -604 0
-604 -542 0
544 -604 0
-604 -546 0
-604 -548 0
550 -604 0
-604 -552 0
554 -604 0
556 -604 0
558 -604 0
-604 -560 0
562 -604 0
-604 -564 0
-604 -566 0
568 -604 0
-604 -570 0
572 -604 0
-604 -574 0
576 -604 0
-604 -578 0
-604 -580 0
-604 -582 0
584 -604 0
-604 -586 0
-604 -588 0
590 -604 0
-604 -592 0
594 -604 0
596 -604 0
-604 -598 0
-604 -600 0
602 -604 0
604 0
-605 0
-606 0
-607 0
-608 0
-609 0
-610 0
-611 0
-612 0
